NAME 
OBJSENSE MAX
ROWS
 N  OBJ
 L  packing[0]
 L  packing[1]
 L  packing[2]
 L  packing[3]
 L  packing[4]
 L  packing[5]
 L  packing[6]
 L  packing[7]
 L  packing[8]
 L  packing[9]
 L  packing[10]
 L  packing[11]
 L  packing[12]
 L  packing[13]
 L  packing[14]
 L  packing[15]
 L  packing[16]
 L  packing[17]
 L  packing[18]
 L  packing[19]
 L  packing[20]
 L  packing[21]
 L  packing[22]
 L  packing[23]
 L  packing[24]
 L  packing[25]
 L  packing[26]
 L  packing[27]
 L  packing[28]
 L  packing[29]
 L  packing[30]
 L  packing[31]
 L  packing[32]
 L  packing[33]
 L  packing[34]
 L  packing[35]
 L  packing[36]
 L  packing[37]
 L  packing[38]
 L  packing[39]
 L  packing[40]
 L  packing[41]
 L  packing[42]
 L  packing[43]
 L  packing[44]
 L  packing[45]
 L  packing[46]
 L  packing[47]
 L  packing[48]
 L  packing[49]
COLUMNS
    MARKER    'MARKER'                 'INTORG'
    x[1]      OBJ       176
    x[1]      packing[1]  123
    x[1]      packing[4]  125
    x[1]      packing[5]  150
    x[1]      packing[6]  140
    x[1]      packing[7]  128
    x[1]      packing[8]  171
    x[1]      packing[10]  46
    x[1]      packing[11]  79
    x[1]      packing[12]  50
    x[1]      packing[14]  37
    x[1]      packing[15]  68
    x[1]      packing[16]  154
    x[1]      packing[17]  74
    x[1]      packing[18]  159
    x[1]      packing[19]  131
    x[1]      packing[20]  168
    x[1]      packing[21]  84
    x[1]      packing[23]  169
    x[1]      packing[25]  125
    x[1]      packing[26]  67
    x[1]      packing[27]  81
    x[1]      packing[28]  15
    x[1]      packing[29]  33
    x[1]      packing[30]  131
    x[1]      packing[31]  93
    x[1]      packing[32]  113
    x[1]      packing[34]  119
    x[1]      packing[35]  32
    x[1]      packing[38]  147
    x[1]      packing[39]  123
    x[1]      packing[41]  188
    x[1]      packing[42]  177
    x[1]      packing[43]  175
    x[1]      packing[44]  50
    x[1]      packing[45]  106
    x[1]      packing[46]  95
    x[1]      packing[47]  34
    x[1]      packing[48]  174
    x[1]      packing[49]  9
    x[2]      OBJ       97
    x[2]      packing[1]  159
    x[2]      packing[2]  1
    x[2]      packing[3]  72
    x[2]      packing[5]  35
    x[2]      packing[7]  175
    x[2]      packing[8]  36
    x[2]      packing[9]  75
    x[2]      packing[10]  43
    x[2]      packing[11]  16
    x[2]      packing[13]  133
    x[2]      packing[14]  64
    x[2]      packing[15]  70
    x[2]      packing[16]  31
    x[2]      packing[18]  91
    x[2]      packing[20]  128
    x[2]      packing[21]  116
    x[2]      packing[23]  122
    x[2]      packing[24]  94
    x[2]      packing[26]  46
    x[2]      packing[27]  99
    x[2]      packing[30]  102
    x[2]      packing[31]  51
    x[2]      packing[33]  49
    x[2]      packing[34]  71
    x[2]      packing[35]  84
    x[2]      packing[37]  150
    x[2]      packing[38]  17
    x[2]      packing[40]  183
    x[2]      packing[41]  148
    x[2]      packing[42]  23
    x[2]      packing[43]  190
    x[2]      packing[44]  16
    x[2]      packing[45]  149
    x[2]      packing[47]  150
    x[2]      packing[48]  73
    x[2]      packing[49]  106
    x[3]      OBJ       108
    x[3]      packing[0]  68
    x[3]      packing[1]  153
    x[3]      packing[2]  80
    x[3]      packing[4]  151
    x[3]      packing[5]  189
    x[3]      packing[7]  136
    x[3]      packing[9]  145
    x[3]      packing[13]  179
    x[3]      packing[14]  109
    x[3]      packing[15]  169
    x[3]      packing[16]  153
    x[3]      packing[17]  34
    x[3]      packing[18]  97
    x[3]      packing[19]  171
    x[3]      packing[22]  25
    x[3]      packing[23]  105
    x[3]      packing[24]  141
    x[3]      packing[25]  152
    x[3]      packing[26]  175
    x[3]      packing[27]  5
    x[3]      packing[28]  182
    x[3]      packing[30]  105
    x[3]      packing[31]  84
    x[3]      packing[33]  143
    x[3]      packing[34]  45
    x[3]      packing[35]  102
    x[3]      packing[36]  62
    x[3]      packing[37]  105
    x[3]      packing[39]  156
    x[3]      packing[40]  167
    x[3]      packing[41]  36
    x[3]      packing[43]  87
    x[3]      packing[44]  151
    x[3]      packing[45]  152
    x[3]      packing[46]  140
    x[3]      packing[47]  131
    x[3]      packing[48]  165
    x[3]      packing[49]  169
    x[4]      OBJ       91
    x[4]      packing[0]  119
    x[4]      packing[1]  56
    x[4]      packing[5]  188
    x[4]      packing[6]  30
    x[4]      packing[7]  168
    x[4]      packing[10]  6
    x[4]      packing[11]  96
    x[4]      packing[12]  181
    x[4]      packing[13]  132
    x[4]      packing[15]  162
    x[4]      packing[17]  32
    x[4]      packing[18]  85
    x[4]      packing[19]  46
    x[4]      packing[20]  23
    x[4]      packing[22]  162
    x[4]      packing[23]  191
    x[4]      packing[25]  21
    x[4]      packing[26]  58
    x[4]      packing[27]  104
    x[4]      packing[30]  2
    x[4]      packing[32]  68
    x[4]      packing[33]  126
    x[4]      packing[35]  13
    x[4]      packing[36]  105
    x[4]      packing[37]  73
    x[4]      packing[38]  165
    x[4]      packing[41]  156
    x[4]      packing[43]  153
    x[4]      packing[44]  122
    x[4]      packing[45]  120
    x[5]      OBJ       170
    x[5]      packing[0]  58
    x[5]      packing[1]  94
    x[5]      packing[2]  85
    x[5]      packing[3]  49
    x[5]      packing[4]  80
    x[5]      packing[5]  96
    x[5]      packing[6]  151
    x[5]      packing[7]  118
    x[5]      packing[8]  39
    x[5]      packing[9]  39
    x[5]      packing[10]  93
    x[5]      packing[11]  198
    x[5]      packing[12]  168
    x[5]      packing[13]  175
    x[5]      packing[14]  187
    x[5]      packing[15]  49
    x[5]      packing[16]  193
    x[5]      packing[17]  41
    x[5]      packing[18]  78
    x[5]      packing[19]  16
    x[5]      packing[22]  71
    x[5]      packing[23]  151
    x[5]      packing[25]  26
    x[5]      packing[27]  99
    x[5]      packing[28]  61
    x[5]      packing[31]  129
    x[5]      packing[33]  16
    x[5]      packing[35]  74
    x[5]      packing[36]  147
    x[5]      packing[37]  4
    x[5]      packing[40]  130
    x[5]      packing[41]  122
    x[5]      packing[43]  196
    x[5]      packing[44]  26
    x[5]      packing[45]  151
    x[5]      packing[46]  142
    x[5]      packing[47]  66
    x[5]      packing[48]  189
    x[5]      packing[49]  52
    x[6]      OBJ       188
    x[6]      packing[0]  150
    x[6]      packing[1]  38
    x[6]      packing[3]  124
    x[6]      packing[4]  8
    x[6]      packing[6]  95
    x[6]      packing[7]  58
    x[6]      packing[8]  164
    x[6]      packing[10]  8
    x[6]      packing[11]  24
    x[6]      packing[12]  72
    x[6]      packing[13]  85
    x[6]      packing[14]  94
    x[6]      packing[16]  62
    x[6]      packing[17]  113
    x[6]      packing[18]  14
    x[6]      packing[19]  52
    x[6]      packing[20]  157
    x[6]      packing[21]  63
    x[6]      packing[24]  96
    x[6]      packing[25]  43
    x[6]      packing[26]  85
    x[6]      packing[27]  4
    x[6]      packing[28]  52
    x[6]      packing[29]  36
    x[6]      packing[30]  148
    x[6]      packing[31]  95
    x[6]      packing[32]  170
    x[6]      packing[33]  93
    x[6]      packing[35]  149
    x[6]      packing[37]  155
    x[6]      packing[38]  194
    x[6]      packing[39]  144
    x[6]      packing[40]  86
    x[6]      packing[42]  104
    x[6]      packing[43]  59
    x[6]      packing[45]  27
    x[6]      packing[46]  3
    x[6]      packing[47]  150
    x[6]      packing[48]  40
    x[7]      OBJ       133
    x[7]      packing[0]  115
    x[7]      packing[1]  20
    x[7]      packing[4]  128
    x[7]      packing[5]  114
    x[7]      packing[6]  181
    x[7]      packing[7]  52
    x[7]      packing[9]  99
    x[7]      packing[10]  16
    x[7]      packing[12]  119
    x[7]      packing[13]  138
    x[7]      packing[14]  193
    x[7]      packing[15]  27
    x[7]      packing[16]  23
    x[7]      packing[17]  120
    x[7]      packing[18]  105
    x[7]      packing[20]  179
    x[7]      packing[21]  138
    x[7]      packing[22]  118
    x[7]      packing[24]  161
    x[7]      packing[25]  173
    x[7]      packing[26]  189
    x[7]      packing[29]  146
    x[7]      packing[31]  170
    x[7]      packing[32]  43
    x[7]      packing[33]  92
    x[7]      packing[35]  145
    x[7]      packing[36]  162
    x[7]      packing[37]  165
    x[7]      packing[38]  23
    x[7]      packing[40]  18
    x[7]      packing[41]  128
    x[7]      packing[43]  137
    x[7]      packing[44]  3
    x[7]      packing[45]  57
    x[7]      packing[46]  42
    x[7]      packing[47]  172
    x[7]      packing[48]  163
    x[7]      packing[49]  3
    x[8]      OBJ       149
    x[8]      packing[2]  143
    x[8]      packing[3]  27
    x[8]      packing[5]  119
    x[8]      packing[6]  86
    x[8]      packing[8]  126
    x[8]      packing[9]  58
    x[8]      packing[11]  10
    x[8]      packing[12]  103
    x[8]      packing[13]  13
    x[8]      packing[15]  145
    x[8]      packing[17]  152
    x[8]      packing[18]  81
    x[8]      packing[19]  94
    x[8]      packing[21]  148
    x[8]      packing[22]  85
    x[8]      packing[23]  75
    x[8]      packing[26]  39
    x[8]      packing[27]  3
    x[8]      packing[28]  21
    x[8]      packing[29]  14
    x[8]      packing[30]  100
    x[8]      packing[31]  124
    x[8]      packing[32]  96
    x[8]      packing[34]  113
    x[8]      packing[35]  131
    x[8]      packing[36]  185
    x[8]      packing[37]  142
    x[8]      packing[38]  130
    x[8]      packing[39]  108
    x[8]      packing[41]  167
    x[8]      packing[42]  128
    x[8]      packing[44]  102
    x[8]      packing[45]  96
    x[8]      packing[46]  155
    x[8]      packing[47]  155
    x[8]      packing[48]  89
    x[9]      OBJ       158
    x[9]      packing[0]  26
    x[9]      packing[3]  104
    x[9]      packing[4]  82
    x[9]      packing[5]  155
    x[9]      packing[8]  192
    x[9]      packing[9]  103
    x[9]      packing[10]  13
    x[9]      packing[11]  155
    x[9]      packing[12]  189
    x[9]      packing[13]  88
    x[9]      packing[14]  191
    x[9]      packing[16]  6
    x[9]      packing[17]  82
    x[9]      packing[18]  86
    x[9]      packing[19]  94
    x[9]      packing[20]  83
    x[9]      packing[21]  143
    x[9]      packing[24]  156
    x[9]      packing[25]  69
    x[9]      packing[29]  22
    x[9]      packing[30]  180
    x[9]      packing[31]  138
    x[9]      packing[33]  3
    x[9]      packing[34]  198
    x[9]      packing[35]  135
    x[9]      packing[36]  157
    x[9]      packing[40]  166
    x[9]      packing[42]  1
    x[9]      packing[44]  87
    x[9]      packing[45]  183
    x[9]      packing[46]  74
    x[9]      packing[47]  195
    x[9]      packing[48]  93
    x[9]      packing[49]  21
    x[10]     OBJ       142
    x[10]     packing[1]  32
    x[10]     packing[3]  8
    x[10]     packing[4]  154
    x[10]     packing[5]  141
    x[10]     packing[6]  133
    x[10]     packing[7]  38
    x[10]     packing[8]  77
    x[10]     packing[9]  123
    x[10]     packing[10]  114
    x[10]     packing[11]  23
    x[10]     packing[13]  101
    x[10]     packing[14]  148
    x[10]     packing[15]  105
    x[10]     packing[16]  114
    x[10]     packing[18]  94
    x[10]     packing[21]  8
    x[10]     packing[22]  117
    x[10]     packing[24]  156
    x[10]     packing[25]  50
    x[10]     packing[29]  58
    x[10]     packing[30]  139
    x[10]     packing[31]  95
    x[10]     packing[32]  90
    x[10]     packing[33]  62
    x[10]     packing[34]  194
    x[10]     packing[35]  3
    x[10]     packing[36]  8
    x[10]     packing[37]  198
    x[10]     packing[38]  75
    x[10]     packing[39]  125
    x[10]     packing[42]  155
    x[10]     packing[44]  33
    x[10]     packing[45]  77
    x[10]     packing[47]  177
    x[10]     packing[48]  110
    x[11]     OBJ       62
    x[11]     packing[0]  199
    x[11]     packing[1]  160
    x[11]     packing[2]  169
    x[11]     packing[3]  44
    x[11]     packing[4]  91
    x[11]     packing[5]  8
    x[11]     packing[6]  18
    x[11]     packing[7]  190
    x[11]     packing[9]  102
    x[11]     packing[10]  98
    x[11]     packing[12]  22
    x[11]     packing[13]  20
    x[11]     packing[14]  24
    x[11]     packing[15]  80
    x[11]     packing[16]  146
    x[11]     packing[17]  184
    x[11]     packing[18]  30
    x[11]     packing[19]  77
    x[11]     packing[20]  22
    x[11]     packing[22]  110
    x[11]     packing[23]  111
    x[11]     packing[24]  121
    x[11]     packing[25]  83
    x[11]     packing[27]  88
    x[11]     packing[28]  128
    x[11]     packing[29]  186
    x[11]     packing[30]  62
    x[11]     packing[31]  37
    x[11]     packing[35]  47
    x[11]     packing[36]  84
    x[11]     packing[38]  151
    x[11]     packing[41]  64
    x[11]     packing[42]  31
    x[11]     packing[43]  34
    x[11]     packing[46]  70
    x[11]     packing[47]  124
    x[11]     packing[49]  37
    x[12]     OBJ       23
    x[12]     packing[1]  152
    x[12]     packing[2]  144
    x[12]     packing[4]  44
    x[12]     packing[6]  183
    x[12]     packing[7]  87
    x[12]     packing[8]  118
    x[12]     packing[9]  173
    x[12]     packing[11]  182
    x[12]     packing[12]  139
    x[12]     packing[13]  54
    x[12]     packing[15]  105
    x[12]     packing[16]  137
    x[12]     packing[17]  107
    x[12]     packing[18]  135
    x[12]     packing[19]  154
    x[12]     packing[21]  41
    x[12]     packing[22]  31
    x[12]     packing[23]  148
    x[12]     packing[24]  110
    x[12]     packing[25]  58
    x[12]     packing[26]  114
    x[12]     packing[27]  179
    x[12]     packing[28]  101
    x[12]     packing[31]  99
    x[12]     packing[32]  134
    x[12]     packing[33]  163
    x[12]     packing[35]  17
    x[12]     packing[36]  23
    x[12]     packing[37]  39
    x[12]     packing[38]  195
    x[12]     packing[39]  194
    x[12]     packing[40]  116
    x[12]     packing[41]  135
    x[12]     packing[42]  18
    x[12]     packing[43]  173
    x[12]     packing[44]  86
    x[12]     packing[46]  161
    x[12]     packing[47]  113
    x[12]     packing[48]  6
    x[12]     packing[49]  138
    x[13]     OBJ       122
    x[13]     packing[0]  196
    x[13]     packing[3]  134
    x[13]     packing[4]  110
    x[13]     packing[6]  59
    x[13]     packing[7]  121
    x[13]     packing[9]  92
    x[13]     packing[10]  21
    x[13]     packing[12]  35
    x[13]     packing[14]  180
    x[13]     packing[15]  11
    x[13]     packing[16]  140
    x[13]     packing[17]  81
    x[13]     packing[18]  180
    x[13]     packing[20]  100
    x[13]     packing[21]  87
    x[13]     packing[25]  4
    x[13]     packing[26]  74
    x[13]     packing[27]  86
    x[13]     packing[28]  3
    x[13]     packing[29]  112
    x[13]     packing[31]  93
    x[13]     packing[33]  137
    x[13]     packing[34]  16
    x[13]     packing[35]  77
    x[13]     packing[36]  183
    x[13]     packing[37]  131
    x[13]     packing[40]  60
    x[13]     packing[41]  156
    x[13]     packing[42]  146
    x[13]     packing[43]  125
    x[13]     packing[44]  178
    x[13]     packing[45]  183
    x[13]     packing[46]  159
    x[13]     packing[48]  123
    x[14]     OBJ       199
    x[14]     packing[2]  18
    x[14]     packing[3]  142
    x[14]     packing[5]  156
    x[14]     packing[6]  188
    x[14]     packing[7]  32
    x[14]     packing[8]  141
    x[14]     packing[9]  119
    x[14]     packing[10]  48
    x[14]     packing[11]  82
    x[14]     packing[13]  14
    x[14]     packing[14]  71
    x[14]     packing[16]  112
    x[14]     packing[17]  153
    x[14]     packing[19]  120
    x[14]     packing[21]  139
    x[14]     packing[22]  80
    x[14]     packing[23]  150
    x[14]     packing[24]  199
    x[14]     packing[25]  177
    x[14]     packing[28]  57
    x[14]     packing[29]  152
    x[14]     packing[32]  96
    x[14]     packing[33]  121
    x[14]     packing[35]  167
    x[14]     packing[36]  196
    x[14]     packing[37]  150
    x[14]     packing[38]  110
    x[14]     packing[39]  148
    x[14]     packing[40]  73
    x[14]     packing[43]  170
    x[14]     packing[44]  48
    x[14]     packing[45]  52
    x[14]     packing[46]  94
    x[14]     packing[47]  9
    x[14]     packing[48]  117
    x[14]     packing[49]  9
    x[15]     OBJ       164
    x[15]     packing[2]  77
    x[15]     packing[3]  31
    x[15]     packing[4]  158
    x[15]     packing[5]  3
    x[15]     packing[6]  139
    x[15]     packing[8]  55
    x[15]     packing[9]  179
    x[15]     packing[10]  151
    x[15]     packing[11]  75
    x[15]     packing[12]  54
    x[15]     packing[15]  72
    x[15]     packing[17]  31
    x[15]     packing[18]  81
    x[15]     packing[19]  42
    x[15]     packing[20]  16
    x[15]     packing[22]  163
    x[15]     packing[23]  107
    x[15]     packing[24]  56
    x[15]     packing[28]  172
    x[15]     packing[29]  199
    x[15]     packing[30]  140
    x[15]     packing[31]  75
    x[15]     packing[32]  198
    x[15]     packing[33]  30
    x[15]     packing[34]  93
    x[15]     packing[35]  102
    x[15]     packing[36]  144
    x[15]     packing[37]  116
    x[15]     packing[40]  64
    x[15]     packing[44]  1
    x[15]     packing[45]  55
    x[15]     packing[46]  34
    x[15]     packing[47]  110
    x[15]     packing[49]  57
    x[16]     OBJ       15
    x[16]     packing[0]  127
    x[16]     packing[1]  46
    x[16]     packing[2]  38
    x[16]     packing[4]  174
    x[16]     packing[5]  50
    x[16]     packing[6]  52
    x[16]     packing[7]  102
    x[16]     packing[8]  157
    x[16]     packing[9]  165
    x[16]     packing[12]  71
    x[16]     packing[13]  41
    x[16]     packing[14]  181
    x[16]     packing[15]  183
    x[16]     packing[17]  35
    x[16]     packing[18]  132
    x[16]     packing[19]  84
    x[16]     packing[20]  86
    x[16]     packing[22]  132
    x[16]     packing[23]  166
    x[16]     packing[24]  45
    x[16]     packing[26]  7
    x[16]     packing[27]  66
    x[16]     packing[28]  109
    x[16]     packing[31]  194
    x[16]     packing[32]  94
    x[16]     packing[34]  137
    x[16]     packing[35]  38
    x[16]     packing[36]  117
    x[16]     packing[39]  197
    x[16]     packing[40]  191
    x[16]     packing[41]  26
    x[16]     packing[42]  121
    x[16]     packing[45]  49
    x[16]     packing[46]  117
    x[16]     packing[47]  150
    x[16]     packing[49]  73
    x[17]     OBJ       183
    x[17]     packing[0]  145
    x[17]     packing[2]  34
    x[17]     packing[3]  195
    x[17]     packing[5]  46
    x[17]     packing[6]  161
    x[17]     packing[7]  34
    x[17]     packing[8]  147
    x[17]     packing[9]  151
    x[17]     packing[11]  168
    x[17]     packing[13]  22
    x[17]     packing[14]  58
    x[17]     packing[15]  19
    x[17]     packing[16]  172
    x[17]     packing[17]  104
    x[17]     packing[18]  52
    x[17]     packing[21]  105
    x[17]     packing[22]  153
    x[17]     packing[23]  175
    x[17]     packing[24]  181
    x[17]     packing[25]  79
    x[17]     packing[26]  58
    x[17]     packing[28]  132
    x[17]     packing[29]  171
    x[17]     packing[30]  133
    x[17]     packing[33]  86
    x[17]     packing[34]  155
    x[17]     packing[35]  166
    x[17]     packing[37]  169
    x[17]     packing[38]  137
    x[17]     packing[39]  146
    x[17]     packing[40]  109
    x[17]     packing[41]  120
    x[17]     packing[43]  116
    x[17]     packing[44]  63
    x[17]     packing[46]  156
    x[18]     OBJ       116
    x[18]     packing[1]  81
    x[18]     packing[2]  110
    x[18]     packing[3]  71
    x[18]     packing[4]  33
    x[18]     packing[5]  133
    x[18]     packing[7]  9
    x[18]     packing[8]  141
    x[18]     packing[10]  179
    x[18]     packing[12]  30
    x[18]     packing[13]  107
    x[18]     packing[15]  76
    x[18]     packing[16]  19
    x[18]     packing[17]  47
    x[18]     packing[18]  36
    x[18]     packing[19]  7
    x[18]     packing[20]  177
    x[18]     packing[23]  114
    x[18]     packing[24]  189
    x[18]     packing[25]  173
    x[18]     packing[28]  22
    x[18]     packing[29]  186
    x[18]     packing[30]  186
    x[18]     packing[32]  160
    x[18]     packing[33]  137
    x[18]     packing[34]  74
    x[18]     packing[35]  128
    x[18]     packing[37]  125
    x[18]     packing[38]  197
    x[18]     packing[39]  41
    x[18]     packing[40]  8
    x[18]     packing[43]  101
    x[18]     packing[47]  125
    x[18]     packing[49]  178
    x[19]     OBJ       112
    x[19]     packing[0]  111
    x[19]     packing[1]  142
    x[19]     packing[4]  114
    x[19]     packing[5]  98
    x[19]     packing[8]  24
    x[19]     packing[9]  56
    x[19]     packing[10]  131
    x[19]     packing[12]  64
    x[19]     packing[13]  122
    x[19]     packing[15]  5
    x[19]     packing[16]  27
    x[19]     packing[17]  51
    x[19]     packing[18]  128
    x[19]     packing[19]  191
    x[19]     packing[20]  56
    x[19]     packing[21]  11
    x[19]     packing[22]  139
    x[19]     packing[23]  142
    x[19]     packing[24]  16
    x[19]     packing[25]  80
    x[19]     packing[26]  101
    x[19]     packing[27]  37
    x[19]     packing[28]  108
    x[19]     packing[29]  41
    x[19]     packing[30]  66
    x[19]     packing[33]  82
    x[19]     packing[34]  67
    x[19]     packing[35]  58
    x[19]     packing[36]  160
    x[19]     packing[37]  131
    x[19]     packing[38]  131
    x[19]     packing[39]  42
    x[19]     packing[40]  95
    x[19]     packing[43]  33
    x[19]     packing[44]  62
    x[19]     packing[45]  37
    x[19]     packing[46]  133
    x[19]     packing[47]  132
    x[20]     OBJ       179
    x[20]     packing[0]  82
    x[20]     packing[1]  2
    x[20]     packing[2]  50
    x[20]     packing[4]  133
    x[20]     packing[5]  118
    x[20]     packing[6]  169
    x[20]     packing[7]  187
    x[20]     packing[9]  79
    x[20]     packing[10]  82
    x[20]     packing[11]  32
    x[20]     packing[12]  82
    x[20]     packing[13]  78
    x[20]     packing[14]  69
    x[20]     packing[16]  126
    x[20]     packing[19]  130
    x[20]     packing[20]  66
    x[20]     packing[21]  155
    x[20]     packing[22]  4
    x[20]     packing[23]  17
    x[20]     packing[24]  60
    x[20]     packing[25]  149
    x[20]     packing[26]  22
    x[20]     packing[27]  166
    x[20]     packing[28]  37
    x[20]     packing[31]  12
    x[20]     packing[32]  40
    x[20]     packing[33]  8
    x[20]     packing[34]  147
    x[20]     packing[35]  166
    x[20]     packing[36]  47
    x[20]     packing[37]  91
    x[20]     packing[38]  21
    x[20]     packing[39]  8
    x[20]     packing[41]  61
    x[20]     packing[42]  78
    x[20]     packing[43]  94
    x[20]     packing[44]  137
    x[20]     packing[45]  57
    x[20]     packing[46]  113
    x[20]     packing[47]  86
    x[20]     packing[48]  163
    x[20]     packing[49]  34
    MARKER    'MARKER'                 'INTEND'
RHS
    RHS1      packing[0]  698
    RHS1      packing[1]  629
    RHS1      packing[2]  475
    RHS1      packing[3]  501
    RHS1      packing[4]  793
    RHS1      packing[5]  900
    RHS1      packing[6]  893
    RHS1      packing[7]  818
    RHS1      packing[8]  794
    RHS1      packing[9]  879
    RHS1      packing[10]  525
    RHS1      packing[11]  570
    RHS1      packing[12]  690
    RHS1      packing[13]  751
    RHS1      packing[14]  803
    RHS1      packing[15]  673
    RHS1      packing[16]  808
    RHS1      packing[17]  721
    RHS1      packing[18]  832
    RHS1      packing[19]  705
    RHS1      packing[20]  631
    RHS1      packing[21]  619
    RHS1      packing[22]  695
    RHS1      packing[23]  972
    RHS1      packing[24]  891
    RHS1      packing[25]  731
    RHS1      packing[26]  518
    RHS1      packing[27]  509
    RHS1      packing[28]  600
    RHS1      packing[29]  678
    RHS1      packing[30]  747
    RHS1      packing[31]  745
    RHS1      packing[32]  651
    RHS1      packing[33]  674
    RHS1      packing[34]  715
    RHS1      packing[35]  917
    RHS1      packing[36]  890
    RHS1      packing[37]  972
    RHS1      packing[38]  847
    RHS1      packing[39]  716
    RHS1      packing[40]  733
    RHS1      packing[41]  754
    RHS1      packing[42]  491
    RHS1      packing[43]  922
    RHS1      packing[44]  583
    RHS1      packing[45]  776
    RHS1      packing[46]  844
    RHS1      packing[47]  1040
    RHS1      packing[48]  753
    RHS1      packing[49]  443
BOUNDS
 BV BND1      x[1]    
 BV BND1      x[2]    
 BV BND1      x[3]    
 BV BND1      x[4]    
 BV BND1      x[5]    
 BV BND1      x[6]    
 BV BND1      x[7]    
 BV BND1      x[8]    
 BV BND1      x[9]    
 BV BND1      x[10]   
 BV BND1      x[11]   
 BV BND1      x[12]   
 BV BND1      x[13]   
 BV BND1      x[14]   
 BV BND1      x[15]   
 BV BND1      x[16]   
 BV BND1      x[17]   
 BV BND1      x[18]   
 BV BND1      x[19]   
 BV BND1      x[20]   
ENDATA
